77 300 36 32 48 19 44 32 34 26 28 15 28 37 28 39 19 31 50 35 45 27 27 30 16 36 19 34 29 40 45 50 27 32 33 27 41 29 49 24 47 28 31 26 15 10 14 26 32 13 12 28 32 30 48 38 15 18 23 36 49 17 37 27 39 20 44 31 41 44 47 37 22 27 12 29 29 18 45 